c uprop, v00.0, 
c reading from data/prog636.c.cnf
c done reading: 0.0035
p cnf 159 660
-86 -91 0
-84 -86 0
84 86 91 0
-76 84 91 0
-76 -84 -91 0
76 84 -91 0
76 -84 91 0
-71 86 0
-69 -71 0
69 71 -86 0
-62 69 -86 0
-62 -69 86 0
62 69 86 0
62 -69 -86 0
-56 71 0
56 -71 0
-52 -71 0
52 71 0
-49 56 0
49 -56 0
-56 -88 0
56 88 0
49 -81 0
-49 81 0
-49 -66 0
49 66 0
81 -93 0
-81 93 0
-81 -95 0
81 95 0
93 -97 0
-93 97 0
-93 -99 0
93 99 0
84 -101 0
91 -101 0
-84 -91 101 0
-84 -91 -103 0
84 91 -103 0
-84 91 103 0
84 -91 103 0
-69 -84 105 0
-69 -101 105 0
-84 -101 105 0
69 84 -105 0
69 101 -105 0
84 101 -105 0
69 -105 -107 0
84 -105 -107 0
101 -105 -107 0
-69 105 107 0
-84 105 107 0
-101 105 107 0
-69 -84 -101 107 0
69 84 101 -107 0
-69 -105 109 0
69 -109 0
105 -109 0
69 105 -109 0
-109 -112 0
69 -109 -112 0
105 -109 -112 0
-69 109 112 0
-105 109 112 0
69 105 -112 0
-109 115 0
109 -115 0
-79 107 0
-79 91 0
79 -91 -107 0
-74 -91 -107 0
-74 91 107 0
74 91 -107 0
74 -91 107 0
65 -84 -112 0
65 -79 -112 0
65 -79 -84 0
-65 84 112 0
-65 79 112 0
-65 79 84 0
-59 -65 112 0
-59 -65 84 0
-59 -65 79 0
59 65 -112 0
59 65 -84 0
59 65 -79 0
59 -79 -84 -112 0
-59 79 84 112 0
54 -69 -115 0
54 -65 -115 0
54 -65 -69 0
-54 69 115 0
-54 65 115 0
-54 65 69 0
-47 -54 115 0
-47 -54 69 0
-47 -54 65 0
47 54 -115 0
47 54 -69 0
47 54 -65 0
47 -65 -69 -115 0
-47 65 69 115 0
46 -54 0
-46 54 0
-45 59 0
-45 91 0
45 -59 -91 0
-44 -59 -91 0
-44 59 91 0
44 -59 91 0
44 59 -91 0
43 -47 -84 0
43 -45 -47 0
43 -45 -84 0
-43 47 84 0
-43 45 47 0
-43 45 84 0
-42 -43 47 0
-42 -43 84 0
-42 -43 45 0
42 43 -47 0
42 43 -84 0
42 43 -45 0
42 -45 -47 -84 0
-42 45 47 84 0
41 -46 -69 0
41 -43 -46 0
41 -43 -69 0
-41 46 69 0
-41 43 46 0
-41 43 69 0
-40 -41 46 0
-40 -41 69 0
-40 -41 43 0
40 41 -46 0
40 41 -69 0
40 41 -43 0
40 -43 -46 -69 0
-40 43 46 69 0
39 -41 0
-39 41 0
42 -61 0
-61 91 0
-42 61 -91 0
-42 -55 -91 0
42 -55 91 0
-42 55 91 0
42 55 -91 0
-40 51 -84 0
-40 51 -61 0
51 -61 -84 0
40 -51 84 0
40 -51 61 0
-51 61 84 0
40 -48 -51 0
-48 -51 84 0
-48 -51 61 0
-40 48 51 0
48 51 -84 0
48 51 -61 0
-40 48 -61 -84 0
40 -48 61 84 0
-39 -69 0
-39 -51 0
-51 -69 0
-39 80 0
-69 80 0
-51 80 0
-39 -51 -69 80 0
39 51 69 -80 0
-91 -111 0
-103 -111 0
91 103 111 0
-38 91 103 0
-38 -91 -103 0
38 -91 103 0
38 91 -103 0
111 -114 0
-74 -114 0
74 -111 114 0
-37 74 -111 0
-37 -74 111 0
37 74 111 0
37 -74 -111 0
-36 114 0
-36 -44 0
36 44 -114 0
-35 44 -114 0
-35 -44 114 0
35 44 114 0
35 -44 -114 0
-34 36 0
-34 -55 0
34 -36 55 0
-33 -36 55 0
-33 36 -55 0
33 36 55 0
33 -36 -55 0
34 -90 0
-48 -90 0
-34 48 90 0
-34 48 -83 0
34 -48 -83 0
34 48 83 0
-34 -48 83 0
-68 90 0
-68 -80 0
68 80 -90 0
-78 80 -90 0
-78 -80 90 0
78 80 90 0
78 -80 -90 0
68 -73 0
-68 73 0
-64 -68 0
64 68 0
-58 73 0
58 -73 0
-53 -73 0
53 73 0
58 -116 0
-58 116 0
-58 -92 0
58 92 0
-85 116 0
85 -116 0
-70 -116 0
70 116 0
85 -117 0
-85 117 0
-85 -118 0
85 118 0
117 -119 0
-117 119 0
-117 -120 0
117 120 0
-121 -123 0
121 123 0
121 -124 0
-121 124 0
-122 123 0
-122 -125 0
122 -123 125 0
-123 125 -126 0
123 -125 -126 0
123 125 126 0
-123 -125 126 0
122 -127 0
-127 -128 0
-122 127 128 0
-122 128 -129 0
122 -128 -129 0
122 128 129 0
-122 -128 129 0
127 -131 0
-130 -131 0
-127 130 131 0
-127 130 -133 0
127 -130 -133 0
127 130 133 0
-127 -130 133 0
131 -135 0
-132 -135 0
-131 132 135 0
-131 132 -137 0
131 -132 -137 0
131 132 137 0
-131 -132 137 0
135 -138 0
-134 -138 0
134 -135 138 0
134 -135 -139 0
-134 135 -139 0
134 135 139 0
-134 -135 139 0
138 -140 0
-136 -140 0
136 -138 140 0
136 -138 -141 0
-136 138 -141 0
136 138 141 0
-136 -138 141 0
121 -142 0
-121 142 0
-121 -125 143 0
121 125 -143 0
125 -143 0
121 -143 0
125 -143 -144 0
121 -143 -144 0
-143 -144 0
-125 143 144 0
-121 143 144 0
121 125 -144 0
-125 -128 145 0
-128 -143 145 0
-125 -143 145 0
125 128 -145 0
128 143 -145 0
125 143 -145 0
128 -145 -146 0
125 -145 -146 0
143 -145 -146 0
-128 145 146 0
-125 145 146 0
-143 145 146 0
-125 -128 -143 146 0
125 128 143 -146 0
-128 -130 147 0
-130 -145 147 0
-128 -145 147 0
128 130 -147 0
130 145 -147 0
128 145 -147 0
130 -147 -148 0
128 -147 -148 0
145 -147 -148 0
-130 147 148 0
-128 147 148 0
-145 147 148 0
-128 -130 -145 148 0
128 130 145 -148 0
-130 -132 149 0
-132 -147 149 0
-130 -147 149 0
130 132 -149 0
132 147 -149 0
130 147 -149 0
132 -149 -150 0
130 -149 -150 0
147 -149 -150 0
-132 149 150 0
-130 149 150 0
-147 149 150 0
-130 -132 -147 150 0
130 132 147 -150 0
-132 -134 151 0
-134 -149 151 0
-132 -149 151 0
132 134 -151 0
134 149 -151 0
132 149 -151 0
-87 134 -151 0
-87 132 -151 0
-87 149 -151 0
87 -134 151 0
87 -132 151 0
87 -149 151 0
87 -132 -134 -149 0
-87 132 134 149 0
77 -134 -136 0
77 -136 -151 0
77 -134 -151 0
-77 134 136 0
-77 136 151 0
-77 134 151 0
-72 -77 136 0
-72 -77 134 0
-72 -77 151 0
72 77 -136 0
72 77 -134 0
72 77 -151 0
72 -134 -136 -151 0
-72 134 136 151 0
-63 136 0
-63 77 0
63 -77 -136 0
-57 -77 -136 0
-57 77 136 0
57 77 -136 0
57 -77 136 0
-50 144 0
50 -144 0
89 -121 -146 0
-89 121 146 0
-89 146 0
-89 121 0
-82 -89 146 0
-82 -89 121 0
-82 -89 0
82 89 -146 0
82 89 -121 0
-82 121 146 0
67 -125 -148 0
67 -89 -148 0
67 -89 -125 0
-67 125 148 0
-67 89 148 0
-67 89 125 0
-67 -94 148 0
-67 -94 125 0
-67 89 -94 0
67 94 -148 0
67 94 -125 0
67 -89 94 0
-89 94 -125 -148 0
89 -94 125 148 0
96 -128 -150 0
-67 96 -150 0
-67 96 -128 0
-96 128 150 0
67 -96 150 0
67 -96 128 0
-96 -98 150 0
-96 -98 128 0
67 -96 -98 0
96 98 -150 0
96 98 -128 0
-67 96 98 0
-67 98 -128 -150 0
67 -98 128 150 0
-87 100 -130 0
-87 -96 100 0
-96 100 -130 0
87 -100 130 0
87 96 -100 0
96 -100 130 0
87 -100 -102 0
-100 -102 130 0
96 -100 -102 0
-87 100 102 0
100 102 -130 0
-96 100 102 0
-87 -96 102 -130 0
87 96 -102 130 0
-72 104 -132 0
-72 -100 104 0
-100 104 -132 0
72 -104 132 0
72 100 -104 0
100 -104 132 0
72 -104 -106 0
-104 -106 132 0
100 -104 -106 0
-72 104 106 0
104 106 -132 0
-100 104 106 0
-72 -100 106 -132 0
72 100 -106 132 0
-57 108 -134 0
-57 -104 108 0
-104 108 -134 0
57 -108 134 0
57 104 -108 0
104 -108 134 0
57 -108 -110 0
-108 -110 134 0
104 -108 -110 0
-57 108 110 0
108 110 -134 0
-104 108 110 0
-57 -104 110 -134 0
57 104 -110 134 0
-63 113 -136 0
-63 -108 113 0
-108 113 -136 0
63 -113 136 0
63 108 -113 0
108 -113 136 0
63 -113 -152 0
-113 136 -152 0
108 -113 -152 0
-63 113 152 0
113 -136 152 0
-108 113 152 0
-63 -108 -136 152 0
63 108 136 -152 0
98 -153 0
-98 153 0
-102 -121 154 0
102 121 -154 0
102 -154 0
121 -154 0
102 -154 -155 0
121 -154 -155 0
-154 -155 0
-102 154 155 0
-121 154 155 0
102 121 -155 0
-106 -125 156 0
-106 -154 156 0
-125 -154 156 0
106 125 -156 0
106 154 -156 0
125 154 -156 0
106 -156 -157 0
125 -156 -157 0
154 -156 -157 0
-106 156 157 0
-125 156 157 0
-154 156 157 0
-106 -125 -154 157 0
106 125 154 -157 0
-110 -128 158 0
-110 -156 158 0
-128 -156 158 0
110 128 -158 0
110 156 -158 0
128 156 -158 0
-110 158 0
-128 158 0
-156 158 0
-110 -128 -156 0
-130 -152 159 0
-152 -158 159 0
-130 -158 159 0
130 152 -159 0
152 158 -159 0
130 158 -159 0
-152 159 0
-130 159 0
-158 159 0
-130 -152 -158 0
75 -113 -132 0
75 -113 -159 0
75 -132 -159 0
-75 113 132 0
-75 113 159 0
-75 132 159 0
75 -113 0
75 -132 0
75 -159 0
-113 -132 -159 0
-60 134 0
-60 75 0
60 -75 -134 0
75 -134 0
-75 134 0
-60 -136 0
60 -136 0
-60 136 0
-32 -142 0
32 142 0
-31 142 0
31 -142 0
-30 32 0
-30 -50 0
30 -32 50 0
-29 -32 50 0
-29 32 -50 0
29 32 50 0
29 -32 -50 0
-28 30 0
-28 -82 0
28 -30 82 0
-27 -30 82 0
-27 30 -82 0
27 30 82 0
27 -30 -82 0
-26 28 0
-26 -94 0
26 -28 94 0
-25 -28 94 0
-25 28 -94 0
25 28 94 0
25 -28 -94 0
-24 26 0
-24 -153 0
24 -26 153 0
-23 -26 153 0
-23 26 -153 0
23 26 153 0
23 -26 -153 0
-22 24 0
-22 -155 0
22 -24 155 0
-21 -24 155 0
-21 24 -155 0
21 24 155 0
21 -24 -155 0
-20 22 0
-20 -157 0
20 -22 157 0
-19 -22 157 0
-19 22 -157 0
19 22 157 0
19 -22 -157 0
-18 20 0
18 -20 0
-17 -20 0
17 20 0
-16 18 0
16 -18 0
-15 -18 0
15 18 0
-14 16 0
14 -16 0
-13 -16 0
13 16 0
-12 14 0
12 -14 0
-11 -14 0
11 14 0
-10 12 0
10 -12 0
-9 -12 0
9 12 0
-8 10 0
8 -10 0
-7 -10 0
7 10 0
-6 91 0
-6 142 0
6 -91 -142 0
-91 -142 0
91 142 0
5 -50 -103 0
5 -6 -103 0
5 -6 -50 0
-5 50 103 0
-5 6 103 0
-5 6 50 0
-5 103 0
-5 50 0
-5 6 0
6 50 103 0
4 -74 -82 0
4 -5 -74 0
4 -5 -82 0
-4 74 82 0
-4 5 74 0
-4 5 82 0
-4 74 0
-4 82 0
-4 5 0
5 74 82 0
3 -44 -94 0
3 -4 -44 0
3 -4 -94 0
-3 44 94 0
-3 4 44 0
-3 4 94 0
-3 44 0
-3 94 0
-3 4 0
4 44 94 0
2 -55 -153 0
2 -3 -55 0
2 -3 -153 0
-2 55 153 0
-2 3 55 0
-2 3 153 0
2 -55 0
2 -153 0
2 -3 0
-3 -55 -153 0
1 -48 -155 0
1 -2 -48 0
1 -2 -155 0
-1 48 155 0
-1 2 48 0
-1 2 155 0
1 -48 0
1 -155 0
1 -2 0
-2 -48 -155 0
-80 -157 0
-1 -80 0
-1 -157 0
1 80 157 0
